Welcome to the CBC MILP Solver 
Version: Trunk
Build Date: Apr 16 2020 

Starting solution of the Linear programming relaxation problem using Primal Simplex

Using Python-MIP package version 1.8.1
Machines:  4 Jobs:  4
Order: 
Job  0 : machine 0 ( 10 ) machine 3 ( 1 ) machine 2 ( 6 ) machine 1 ( 7 ) 
Job  1 : machine 0 ( 1 ) machine 3 ( 7 ) machine 1 ( 5 ) machine 2 ( 8 ) 
Job  2 : machine 3 ( 9 ) machine 2 ( 3 ) machine 1 ( 7 ) machine 0 ( 1 ) 
Job  3 : machine 1 ( 7 ) machine 3 ( 3 ) machine 0 ( 9 ) machine 2 ( 10 ) 
K:  44
Job  0 , e: machine  0 ( 0 ) machine  1 ( 17 ) machine  2 ( 11 ) machine  3 ( 10 ) 
Job  1 , e: machine  0 ( 0 ) machine  1 ( 8 ) machine  2 ( 13 ) machine  3 ( 1 ) 
Job  2 , e: machine  0 ( 19 ) machine  1 ( 12 ) machine  2 ( 9 ) machine  3 ( 0 ) 
Job  3 , e: machine  0 ( 10 ) machine  1 ( 0 ) machine  2 ( 19 ) machine  3 ( 7 ) 
Job  0 , f: machine  0 ( 14 ) machine  1 ( 0 ) machine  2 ( 7 ) machine  3 ( 13 ) 
Job  1 , f: machine  0 ( 20 ) machine  1 ( 8 ) machine  2 ( 0 ) machine  3 ( 13 ) 
Job  2 , f: machine  0 ( 0 ) machine  1 ( 1 ) machine  2 ( 8 ) machine  3 ( 11 ) 
Job  3 , f: machine  0 ( 10 ) machine  1 ( 22 ) machine  2 ( 0 ) machine  3 ( 19 ) 
EST and LST:
Job: 0 Machine: 0 EST: 0 LST: 20
Job: 0 Machine: 1 EST: 17 LST: 37
Job: 0 Machine: 2 EST: 11 LST: 31
Job: 0 Machine: 3 EST: 10 LST: 30
Job: 1 Machine: 0 EST: 0 LST: 23
Job: 1 Machine: 1 EST: 8 LST: 31
Job: 1 Machine: 2 EST: 13 LST: 36
Job: 1 Machine: 3 EST: 1 LST: 24
Job: 2 Machine: 0 EST: 19 LST: 43
Job: 2 Machine: 1 EST: 12 LST: 36
Job: 2 Machine: 2 EST: 9 LST: 33
Job: 2 Machine: 3 EST: 0 LST: 24
Job: 3 Machine: 0 EST: 10 LST: 25
Job: 3 Machine: 1 EST: 0 LST: 15
Job: 3 Machine: 2 EST: 19 LST: 34
Job: 3 Machine: 3 EST: 7 LST: 22
Order:
Job: 0 Machine: 0 = 0 
Job: 0 Machine: 1 = 3 
Job: 0 Machine: 2 = 2 
Job: 0 Machine: 3 = 1 
Job: 1 Machine: 0 = 0 
Job: 1 Machine: 1 = 2 
Job: 1 Machine: 2 = 3 
Job: 1 Machine: 3 = 1 
Job: 2 Machine: 0 = 3 
Job: 2 Machine: 1 = 2 
Job: 2 Machine: 2 = 1 
Job: 2 Machine: 3 = 0 
Job: 3 Machine: 0 = 2 
Job: 3 Machine: 1 = 0 
Job: 3 Machine: 2 = 3 
Job: 3 Machine: 3 = 1 
Distances:
Job 0, Machine 0 -> Machine 3: distance 10
Job 0, Machine 0 -> Machine 2: distance 11
Job 0, Machine 0 -> Machine 1: distance 17
Job 0, Machine 3 -> Machine 2: distance 1
Job 0, Machine 3 -> Machine 1: distance 7
Job 0, Machine 2 -> Machine 1: distance 6
Job 1, Machine 0 -> Machine 3: distance 1
Job 1, Machine 0 -> Machine 1: distance 8
Job 1, Machine 0 -> Machine 2: distance 13
Job 1, Machine 3 -> Machine 1: distance 7
Job 1, Machine 3 -> Machine 2: distance 12
Job 1, Machine 1 -> Machine 2: distance 5
Job 2, Machine 3 -> Machine 2: distance 9
Job 2, Machine 3 -> Machine 1: distance 12
Job 2, Machine 3 -> Machine 0: distance 19
Job 2, Machine 2 -> Machine 1: distance 3
Job 2, Machine 2 -> Machine 0: distance 10
Job 2, Machine 1 -> Machine 0: distance 7
Job 3, Machine 1 -> Machine 3: distance 7
Job 3, Machine 1 -> Machine 0: distance 10
Job 3, Machine 1 -> Machine 2: distance 19
Job 3, Machine 3 -> Machine 0: distance 3
Job 3, Machine 3 -> Machine 2: distance 12
Job 3, Machine 0 -> Machine 2: distance 9
McCormic linearization
[(0, 0), (3, 0), (3, 1), (2, 1), (2, 0), (1, 0)]
obj:  0.6000000000000001
solutions:  1
+ x(0,0) + 0.1x(1,0) 
C:  29.0
x(0,0) = 0.73	 x(0,1) = 22.00	 x(0,2) = 11.73	 x(0,3) = 10.73	 
x(1,0) = 2.73	 x(1,1) = 10.73	 x(1,2) = 15.73	 x(1,3) = 3.73	 
x(2,0) = 22.73	 x(2,1) = 15.73	 x(2,2) = 12.73	 x(2,3) = 3.73	 
x(3,0) = 10.00	 x(3,1) = 0.00	 x(3,2) = 19.00	 x(3,3) = 7.00	 
y(0,1,0) = 0.13	 y(1,0,0) = 0.87	 
y(0,2,0) = 0.64	 y(2,0,0) = 0.36	 
y(0,3,0) = 0.96	 y(3,0,0) = 0.04	 
y(1,2,0) = 0.48	 y(2,1,0) = 0.52	 
y(1,3,0) = 0.74	 y(3,1,0) = 0.26	 
y(2,3,0) = 0.00	 y(3,2,0) = 1.00	 
y(0,1,1) = 0.14	 y(1,0,1) = 0.86	 
y(0,2,1) = 0.03	 y(2,0,1) = 0.97	 
y(0,3,1) = 0.00	 y(3,0,1) = 1.00	 
y(1,2,1) = 0.34	 y(2,1,1) = 0.66	 
y(1,3,1) = 0.16	 y(3,1,1) = 0.84	 
y(2,3,1) = 0.00	 y(3,2,1) = 1.00	 
y(0,1,2) = 0.36	 y(1,0,2) = 0.64	 
y(0,2,2) = 0.39	 y(2,0,2) = 0.61	 
y(0,3,2) = 1.00	 y(3,0,2) = 0.00	 
y(1,2,2) = 0.00	 y(2,1,2) = 1.00	 
y(1,3,2) = 0.43	 y(3,1,2) = 0.57	 
y(2,3,2) = 0.85	 y(3,2,2) = 0.15	 
y(0,1,3) = 0.00	 y(1,0,3) = 1.00	 
y(0,2,3) = 0.09	 y(2,0,3) = 0.91	 
y(0,3,3) = 0.04	 y(3,0,3) = 0.96	 
y(1,2,3) = 0.28	 y(2,1,3) = 0.72	 
y(1,3,3) = 0.26	 y(3,1,3) = 0.74	 
y(2,3,3) = 0.25	 y(3,2,3) = 0.75	 
obj:  0.9174311926605505
solutions:  1
+ 0.09174311926605515x(0,0) + 0.08256880733944953x(3,0) + 0.009174311926605514x(1,0) 
[(0, 0), (3, 0), (3, 1), (2, 1), (2, 0), (1, 0)]
cliques:  1 mip: 97
C:  29.0
x(0,0) = 1.82	 x(0,1) = 22.00	 x(0,2) = 12.82	 x(0,3) = 11.82	 
x(1,0) = 0.82	 x(1,1) = 8.82	 x(1,2) = 13.82	 x(1,3) = 1.82	 
x(2,0) = 22.33	 x(2,1) = 15.33	 x(2,2) = 12.33	 x(2,3) = 3.33	 
x(3,0) = 10.00	 x(3,1) = 0.00	 x(3,2) = 19.00	 x(3,3) = 7.00	 
y(0,1,0) = 0.00	 y(1,0,0) = 1.00	 
y(0,2,0) = 0.68	 y(2,0,0) = 0.32	 
y(0,3,0) = 0.91	 y(3,0,0) = 0.09	 
y(1,2,0) = 0.51	 y(2,1,0) = 0.49	 
y(1,3,0) = 0.66	 y(3,1,0) = 0.34	 
y(2,3,0) = 0.00	 y(3,2,0) = 1.00	 
y(0,1,1) = 0.11	 y(1,0,1) = 0.89	 
y(0,2,1) = 0.01	 y(2,0,1) = 0.99	 
y(0,3,1) = 0.00	 y(3,0,1) = 1.00	 
y(1,2,1) = 0.39	 y(2,1,1) = 0.61	 
y(1,3,1) = 0.08	 y(3,1,1) = 0.92	 
y(2,3,1) = 0.00	 y(3,2,1) = 1.00	 
y(0,1,2) = 0.27	 y(1,0,2) = 0.73	 
y(0,2,2) = 0.29	 y(2,0,2) = 0.71	 
y(0,3,2) = 1.00	 y(3,0,2) = 0.00	 
y(1,2,2) = 0.51	 y(2,1,2) = 0.49	 
y(1,3,2) = 0.49	 y(3,1,2) = 0.51	 
y(2,3,2) = 0.83	 y(3,2,2) = 0.17	 
y(0,1,3) = 0.35	 y(1,0,3) = 0.65	 
y(0,2,3) = 0.02	 y(2,0,3) = 0.98	 
y(0,3,3) = 0.09	 y(3,0,3) = 0.91	 
y(1,2,3) = 0.33	 y(2,1,3) = 0.67	 
y(1,3,3) = 0.34	 y(3,1,3) = 0.66	 
y(2,3,3) = 0.27	 y(3,2,3) = 0.73	 
obj:  0.9161225514816684
solutions:  1
+ 0.005524861878453525x(1,2) + 0.044198895027624x(3,2) 
[(1, 2), (3, 2), (0, 0), (3, 0), (3, 1), (1, 0), (1, 1)]
cliques:  1 mip: 131
C:  29.888888888888797
x(0,0) = 0.21	 x(0,1) = 22.89	 x(0,2) = 13.89	 x(0,3) = 12.89	 
x(1,0) = 8.89	 x(1,1) = 16.89	 x(1,2) = 21.89	 x(1,3) = 9.89	 
x(2,0) = 22.89	 x(2,1) = 15.89	 x(2,2) = 12.89	 x(2,3) = 3.89	 
x(3,0) = 10.89	 x(3,1) = 0.89	 x(3,2) = 19.89	 x(3,3) = 7.89	 
y(0,1,0) = 0.40	 y(1,0,0) = 0.60	 
y(0,2,0) = 0.62	 y(2,0,0) = 0.38	 
y(0,3,0) = 1.00	 y(3,0,0) = 0.00	 
y(1,2,0) = 0.38	 y(2,1,0) = 0.62	 
y(1,3,0) = 0.96	 y(3,1,0) = 0.04	 
y(2,3,0) = 0.00	 y(3,2,0) = 1.00	 
y(0,1,1) = 0.17	 y(1,0,1) = 0.83	 
y(0,2,1) = 0.00	 y(2,0,1) = 1.00	 
y(0,3,1) = 0.00	 y(3,0,1) = 1.00	 
y(1,2,1) = 0.17	 y(2,1,1) = 0.83	 
y(1,3,1) = 0.37	 y(3,1,1) = 0.62	 
y(2,3,1) = 0.00	 y(3,2,1) = 1.00	 
y(0,1,2) = 0.70	 y(1,0,2) = 0.30	 
y(0,2,2) = 0.39	 y(2,0,2) = 0.61	 
y(0,3,2) = 1.00	 y(3,0,2) = 0.00	 
y(1,2,2) = 0.30	 y(2,1,2) = 0.70	 
y(1,3,2) = 0.42	 y(3,1,2) = 0.58	 
y(2,3,2) = 0.82	 y(3,2,2) = 0.18	 
y(0,1,3) = 0.36	 y(1,0,3) = 0.64	 
y(0,2,3) = 0.00	 y(2,0,3) = 1.00	 
y(0,3,3) = 0.10	 y(3,0,3) = 0.90	 
y(1,2,3) = 0.09	 y(2,1,3) = 0.91	 
y(1,3,3) = 0.04	 y(3,1,3) = 0.96	 
y(2,3,3) = 0.28	 y(3,2,3) = 0.72	 
obj:  1.0000000000000002
erro
[(1, 2), (3, 2), (0, 0), (3, 0), (3, 1), (1, 0), (1, 1)]
cliques:  0 mip: 80
C:  29.999999999999083
x(0,0) = 1.00	 x(0,1) = 18.00	 x(0,2) = 12.00	 x(0,3) = 11.00	 
x(1,0) = 0.00	 x(1,1) = 8.71	 x(1,2) = 21.00	 x(1,3) = 1.71	 
x(2,0) = 23.57	 x(2,1) = 16.57	 x(2,2) = 13.57	 x(2,3) = 4.57	 
x(3,0) = 11.00	 x(3,1) = 0.48	 x(3,2) = 20.00	 x(3,3) = 7.48	 
y(0,1,0) = 0.21	 y(1,0,0) = 0.79	 
y(0,2,0) = 0.62	 y(2,0,0) = 0.38	 
y(0,3,0) = 1.00	 y(3,0,0) = 0.00	 
y(1,2,0) = 0.59	 y(2,1,0) = 0.41	 
y(1,3,0) = 0.61	 y(3,1,0) = 0.39	 
y(2,3,0) = 0.00	 y(3,2,0) = 1.00	 
y(0,1,1) = 0.13	 y(1,0,1) = 0.87	 
y(0,2,1) = 0.31	 y(2,0,1) = 0.69	 
y(0,3,1) = 0.00	 y(3,0,1) = 1.00	 
y(1,2,1) = 0.42	 y(2,1,1) = 0.58	 
y(1,3,1) = 0.08	 y(3,1,1) = 0.92	 
y(2,3,1) = 0.00	 y(3,2,1) = 1.00	 
y(0,1,2) = 0.52	 y(1,0,2) = 0.48	 
y(0,2,2) = 0.38	 y(2,0,2) = 0.62	 
y(0,3,2) = 1.00	 y(3,0,2) = 0.00	 
y(1,2,2) = 0.18	 y(2,1,2) = 0.82	 
y(1,3,2) = 0.29	 y(3,1,2) = 0.71	 
y(2,3,2) = 0.84	 y(3,2,2) = 0.16	 
y(0,1,3) = 0.17	 y(1,0,3) = 0.83	 
y(0,2,3) = 0.11	 y(2,0,3) = 0.89	 
y(0,3,3) = 0.02	 y(3,0,3) = 0.98	 
y(1,2,3) = 0.37	 y(2,1,3) = 0.63	 
y(1,3,3) = 0.48	 y(3,1,3) = 0.52	 
y(2,3,3) = 0.24	 y(3,2,3) = 0.76	 
obj:  0.6805571699256413
solutions:  1
+ 0.06976744186046513x(1,3) + 0.06686046511627909x(2,3) + 0.02325581395348836x(0,3) 
[(1, 2), (1, 3), (0, 2), (3, 1), (2, 3), (0, 3), (1, 1)]
cliques:  1 mip: 188
C:  30.288888888888877
x(0,0) = 2.83	 x(0,1) = 19.83	 x(0,2) = 13.83	 x(0,3) = 12.83	 
x(1,0) = 4.82	 x(1,1) = 12.82	 x(1,2) = 22.29	 x(1,3) = 5.82	 
x(2,0) = 25.02	 x(2,1) = 18.02	 x(2,2) = 13.42	 x(2,3) = 4.42	 
x(3,0) = 11.29	 x(3,1) = 0.48	 x(3,2) = 20.29	 x(3,3) = 7.48	 
y(0,1,0) = 0.23	 y(1,0,0) = 0.77	 
y(0,2,0) = 0.63	 y(2,0,0) = 0.37	 
y(0,3,0) = 0.92	 y(3,0,0) = 0.08	 
y(1,2,0) = 0.58	 y(2,1,0) = 0.42	 
y(1,3,0) = 0.98	 y(3,1,0) = 0.02	 
y(2,3,0) = 0.00	 y(3,2,0) = 1.00	 
y(0,1,1) = 0.09	 y(1,0,1) = 0.91	 
y(0,2,1) = 0.36	 y(2,0,1) = 0.64	 
y(0,3,1) = 0.00	 y(3,0,1) = 1.00	 
y(1,2,1) = 0.35	 y(2,1,1) = 0.65	 
y(1,3,1) = 0.50	 y(3,1,1) = 0.50	 
y(2,3,1) = 0.00	 y(3,2,1) = 1.00	 
y(0,1,2) = 0.73	 y(1,0,2) = 0.27	 
y(0,2,2) = 0.28	 y(2,0,2) = 0.72	 
y(0,3,2) = 1.00	 y(3,0,2) = 0.00	 
y(1,2,2) = 0.13	 y(2,1,2) = 0.87	 
y(1,3,2) = 0.60	 y(3,1,2) = 0.40	 
y(2,3,2) = 0.82	 y(3,2,2) = 0.18	 
y(0,1,3) = 0.15	 y(1,0,3) = 0.85	 
y(0,2,3) = 0.03	 y(2,0,3) = 0.97	 
y(0,3,3) = 0.12	 y(3,0,3) = 0.88	 
y(1,2,3) = 0.24	 y(2,1,3) = 0.76	 
y(1,3,3) = 0.19	 y(3,1,3) = 0.81	 
y(2,3,3) = 0.24	 y(3,2,3) = 0.76	 
obj:  0.8340331511638864
solutions:  1
+ 0.05384615384615386x(1,3) + 0.023076923076923102x(3,3) + 0.056410256410256425x(2,3) + 0.007692307692307661x(0,3) 
[(1, 3), (3, 3), (3, 1), (2, 3), (0, 3), (1, 1)]
cliques:  1 mip: 203
C:  31.0
x(0,0) = 3.86	 x(0,1) = 24.00	 x(0,2) = 18.00	 x(0,3) = 13.86	 
x(1,0) = 2.60	 x(1,1) = 10.60	 x(1,2) = 19.19	 x(1,3) = 3.60	 
x(2,0) = 28.00	 x(2,1) = 21.00	 x(2,2) = 18.00	 x(2,3) = 9.00	 
x(3,0) = 12.00	 x(3,1) = 1.32	 x(3,2) = 21.00	 x(3,3) = 8.32	 
y(0,1,0) = 0.44	 y(1,0,0) = 0.56	 
y(0,2,0) = 0.57	 y(2,0,0) = 0.43	 
y(0,3,0) = 0.91	 y(3,0,0) = 0.09	 
y(1,2,0) = 0.80	 y(2,1,0) = 0.20	 
y(1,3,0) = 0.95	 y(3,1,0) = 0.05	 
y(2,3,0) = 0.00	 y(3,2,0) = 1.00	 
y(0,1,1) = 0.12	 y(1,0,1) = 0.88	 
y(0,2,1) = 0.27	 y(2,0,1) = 0.73	 
y(0,3,1) = 0.00	 y(3,0,1) = 1.00	 
y(1,2,1) = 0.50	 y(2,1,1) = 0.50	 
y(1,3,1) = 0.18	 y(3,1,1) = 0.82	 
y(2,3,1) = 0.00	 y(3,2,1) = 1.00	 
y(0,1,2) = 0.30	 y(1,0,2) = 0.70	 
y(0,2,2) = 0.15	 y(2,0,2) = 0.85	 
y(0,3,2) = 0.59	 y(3,0,2) = 0.41	 
y(1,2,2) = 0.34	 y(2,1,2) = 0.66	 
y(1,3,2) = 0.38	 y(3,1,2) = 0.62	 
y(2,3,2) = 1.00	 y(3,2,2) = 0.00	 
y(0,1,3) = 0.09	 y(1,0,3) = 0.91	 
y(0,2,3) = 0.18	 y(2,0,3) = 0.82	 
y(0,3,3) = 0.13	 y(3,0,3) = 0.87	 
y(1,2,3) = 0.45	 y(2,1,3) = 0.55	 
y(1,3,3) = 0.32	 y(3,1,3) = 0.68	 
y(2,3,3) = 0.09	 y(3,2,3) = 0.91	 
obj:  1.0182554034271938
erro
[(1, 3), (3, 3), (3, 1), (2, 1), (2, 3), (2, 2), (1, 1)]
cliques:  0 mip: 169
C:  30.99999999999823
x(0,0) = 1.00	 x(0,1) = 24.00	 x(0,2) = 16.33	 x(0,3) = 15.33	 
x(1,0) = -0.00	 x(1,1) = 8.00	 x(1,2) = 13.00	 x(1,3) = 1.00	 
x(2,0) = 30.00	 x(2,1) = 23.00	 x(2,2) = 20.00	 x(2,3) = 11.00	 
x(3,0) = 12.00	 x(3,1) = 2.00	 x(3,2) = 21.00	 x(3,3) = 9.00	 
y(0,1,0) = 0.44	 y(1,0,0) = 0.56	 
y(0,2,0) = 0.87	 y(2,0,0) = 0.13	 
y(0,3,0) = 1.00	 y(3,0,0) = 0.00	 
y(1,2,0) = 0.90	 y(2,1,0) = 0.10	 
y(1,3,0) = 1.00	 y(3,1,0) = -0.00	 
y(2,3,0) = 0.00	 y(3,2,0) = 1.00	 
y(0,1,1) = 0.00	 y(1,0,1) = 1.00	 
y(0,2,1) = 0.40	 y(2,0,1) = 0.60	 
y(0,3,1) = 0.00	 y(3,0,1) = 1.00	 
y(1,2,1) = 0.71	 y(2,1,1) = 0.29	 
y(1,3,1) = 0.69	 y(3,1,1) = 0.31	 
y(2,3,1) = 0.00	 y(3,2,1) = 1.00	 
y(0,1,2) = 0.39	 y(1,0,2) = 0.61	 
y(0,2,2) = 0.34	 y(2,0,2) = 0.66	 
y(0,3,2) = 0.93	 y(3,0,2) = 0.07	 
y(1,2,2) = 0.72	 y(2,1,2) = 0.28	 
y(1,3,2) = 1.00	 y(3,1,2) = -0.00	 
y(2,3,2) = 0.74	 y(3,2,2) = 0.26	 
y(0,1,3) = 0.00	 y(1,0,3) = 1.00	 
y(0,2,3) = 0.20	 y(2,0,3) = 0.80	 
y(0,3,3) = 0.17	 y(3,0,3) = 0.83	 
y(1,2,3) = 0.59	 y(2,1,3) = 0.41	 
y(1,3,3) = 1.00	 y(3,1,3) = 0.00	 
y(2,3,3) = 0.04	 y(3,2,3) = 0.96	 
obj:  0.9999999999999999
erro
[(3, 0), (2, 0), (1, 0), (0, 0)]
cliques:  0 mip: 98
C:  31.190208703178023
x(0,0) = 1.00	 x(0,1) = 24.19	 x(0,2) = 18.19	 x(0,3) = 17.19	 
x(1,0) = 0.00	 x(1,1) = 8.00	 x(1,2) = 13.00	 x(1,3) = 1.00	 
x(2,0) = 30.19	 x(2,1) = 23.19	 x(2,2) = 19.84	 x(2,3) = 10.84	 
x(3,0) = 12.00	 x(3,1) = 1.54	 x(3,2) = 21.00	 x(3,3) = 8.76	 
y(0,1,0) = 0.04	 y(1,0,0) = 0.96	 
y(0,2,0) = 0.69	 y(2,0,0) = 0.31	 
y(0,3,0) = 1.00	 y(3,0,0) = 0.00	 
y(1,2,0) = 1.00	 y(2,1,0) = 0.00	 
y(1,3,0) = 0.99	 y(3,1,0) = 0.01	 
y(2,3,0) = 0.00	 y(3,2,0) = 1.00	 
y(0,1,1) = 0.00	 y(1,0,1) = 1.00	 
y(0,2,1) = 0.41	 y(2,0,1) = 0.59	 
y(0,3,1) = 0.00	 y(3,0,1) = 1.00	 
y(1,2,1) = 1.00	 y(2,1,1) = 0.00	 
y(1,3,1) = 0.04	 y(3,1,1) = 0.96	 
y(2,3,1) = 0.00	 y(3,2,1) = 1.00	 
y(0,1,2) = 0.23	 y(1,0,2) = 0.77	 
y(0,2,2) = 0.84	 y(2,0,2) = 0.16	 
y(0,3,2) = 0.71	 y(3,0,2) = 0.29	 
y(1,2,2) = 0.43	 y(2,1,2) = 0.57	 
y(1,3,2) = 1.00	 y(3,1,2) = 0.00	 
y(2,3,2) = 0.89	 y(3,2,2) = 0.11	 
y(0,1,3) = 0.00	 y(1,0,3) = 1.00	 
y(0,2,3) = 0.54	 y(2,0,3) = 0.46	 
y(0,3,3) = 0.22	 y(3,0,3) = 0.78	 
y(1,2,3) = 1.00	 y(2,1,3) = 0.00	 
y(1,3,3) = 1.00	 y(3,1,3) = 0.00	 
y(2,3,3) = 0.57	 y(3,2,3) = 0.43	 
obj:  0.9873584742021437
solutions:  1
+ 0.06229508196721309x(1,3) + 0.019672131147541003x(3,3) + 0.05901639344262294x(2,3) + 0.00655737704918032x(0,3) 
[(1, 3), (0, 0), (3, 3), (2, 3), (1, 0), (0, 3)]
cliques:  1 mip: 0
C:  31.194366561704694
x(0,0) = 1.00	 x(0,1) = 24.19	 x(0,2) = 18.19	 x(0,3) = 17.19	 
x(1,0) = 0.00	 x(1,1) = 8.00	 x(1,2) = 13.00	 x(1,3) = 1.00	 
x(2,0) = 30.19	 x(2,1) = 23.19	 x(2,2) = 20.06	 x(2,3) = 11.06	 
x(3,0) = 12.00	 x(3,1) = 1.56	 x(3,2) = 21.00	 x(3,3) = 8.76	 
y(0,1,0) = 0.04	 y(1,0,0) = 0.96	 
y(0,2,0) = 0.69	 y(2,0,0) = 0.31	 
y(0,3,0) = 1.00	 y(3,0,0) = 0.00	 
y(1,2,0) = 1.00	 y(2,1,0) = 0.00	 
y(1,3,0) = 0.99	 y(3,1,0) = 0.01	 
y(2,3,0) = 0.00	 y(3,2,0) = 1.00	 
y(0,1,1) = 0.00	 y(1,0,1) = 1.00	 
y(0,2,1) = 0.41	 y(2,0,1) = 0.59	 
y(0,3,1) = 0.00	 y(3,0,1) = 1.00	 
y(1,2,1) = 1.00	 y(2,1,1) = 0.00	 
y(1,3,1) = 0.04	 y(3,1,1) = 0.96	 
y(2,3,1) = 0.00	 y(3,2,1) = 1.00	 
y(0,1,2) = 0.23	 y(1,0,2) = 0.77	 
y(0,2,2) = 0.85	 y(2,0,2) = 0.15	 
y(0,3,2) = 0.72	 y(3,0,2) = 0.28	 
y(1,2,2) = 0.44	 y(2,1,2) = 0.56	 
y(1,3,2) = 1.00	 y(3,1,2) = 0.00	 
y(2,3,2) = 0.86	 y(3,2,2) = 0.14	 
y(0,1,3) = 0.00	 y(1,0,3) = 1.00	 
y(0,2,3) = 0.54	 y(2,0,3) = 0.46	 
y(0,3,3) = 0.22	 y(3,0,3) = 0.78	 
y(1,2,3) = 1.00	 y(2,1,3) = 0.00	 
y(1,3,3) = 1.00	 y(3,1,3) = 0.00	 
y(2,3,3) = 0.57	 y(3,2,3) = 0.43	 
obj:  0.9999999999999971
erro
[(1, 3), (0, 0), (3, 3), (2, 3), (1, 0), (0, 3)]
cliques:  0 mip: 0
iterações: 9 cortes cliques encontrados: 6 mip: 1012 objective:  31.194366561704694
Coin0506I Presolve 157 (-171) rows, 90 (-71) columns and 490 (-260) elements
Clp1000I sum of infeasibilities 1.79124e-08 - average 1.14092e-10, 0 fixed columns
Coin0506I Presolve 157 (0) rows, 90 (0) columns and 490 (0) elements
Clp0029I End of values pass after 90 iterations
Clp0000I Optimal - objective value 29
Clp0000I Optimal - objective value 29
Coin0511I After Postsolve, objective 29, infeasibilities - dual 0 (0), primal 0 (0)
Clp0000I Optimal - objective value 29
Clp0000I Optimal - objective value 29
Clp0000I Optimal - objective value 29
Coin0511I After Postsolve, objective 29, infeasibilities - dual 0 (0), primal 0 (0)
Clp0032I Optimal objective 29 - 0 iterations time 0.012, Presolve 0.00, Idiot 0.01
Coin3009W Conflict graph built in 0.000 seconds, density: 0.070%
